10J3M/DAT/10J3MULA-16.dat
10 3
38.3903 1473.8151
32.8241 1077.4215
7.6998 59.2869
11.18 124.9924
26.7427 715.172
44.2786 1960.5944
6.7919 46.1299
8.5794 73.6061
23.99 575.5201
27.7637 770.823
2292.4538