10J3M/SOL/10J3MULA-16.sol
solution status: optimal solution found
objective value:                     76.0801666666667
x#1#1                              0.0528712159827755 	(obj:0)
x#1#2                               0.235020738621966 	(obj:0)
x#1#3                               0.712108045395258 	(obj:0)
x#2#2                                               1 	(obj:0)
x#3#1                                               1 	(obj:0)
x#4#1                                0.59934926866933 	(obj:0)
x#4#2                                0.40065073133067 	(obj:0)
x#5#3                                               1 	(obj:0)
x#6#1                                               1 	(obj:0)
x#7#1                                               1 	(obj:0)
x#8#1                                               1 	(obj:0)
x#9#2                              0.0829751908491425 	(obj:0)
x#9#3                               0.917024809150858 	(obj:0)
x#10#2                                              1 	(obj:0)
z                                    76.0801666666667 	(obj:1)
